120
150
40
53
54
48
53
42
48
44
59
59
42
51
58
52
40
48
55
47
60
46
44
54
49
47
40
42
40
59
49
42
49
49
53
54
43
47
56
47
43
55
52
40
52
60
44
46
52
54
59
41
50
47
44
59
40
40
42
47
56
47
52
44
54
42
48
60
60
47
43
50
60
40
40
52
59
50
41
51
52
47
40
40
40
51
51
48
49
45
56
53
43
54
56
47
47
59
56
40
53
58
42
59
44
47
42
48
60
53
51
46
48
48
54
43
47
60
41
50
59
59
